(set-logic LRA) (synth-fun rig_mimic ((Pregnancies Real) (Glucose Real) (BloodPressure Real) (SkinThickness Real) (Insulin Real) (BodyMassIndex Real) (DiabetesPedigreeFunction Real) (Age Real)) 
Bool ((B Bool) (BC Bool) (P Real) (G Real) (BP Real) (ST Real) (I Real) (BMI Real) (DPF Real) (A Real) (PC Bool) (GC Bool) (BPC Bool) (STC Bool) (IC Bool) (BMIC Bool) (DPFC Bool) (AC Bool))((B Bool ((Constant Bool) PC GC BPC STC IC BMIC DPFC AC (ite BC B B) ))(BC Bool (PC GC BPC STC IC BMIC DPFC AC))
(P Real (0.2 0.6 1.2)) 
(G Real (1.376543209876543 1.8024691358024691 2.376543209876543))
(BP Real (2.5 3.012662005457026 3.5)) 
(ST Real (2.5714285714285716 3.164774227620808 3.5714285714285716))
(I Real (3.1572866194558333 4.157286619455833 4.157286619455833)) 
(BMI Real (1.021978021978022 1.5604395604395602 2.021978021978022)) 
(DPF Real (0.43333333333333335 0.7699346405228759 1.4333333333333336))
(A Real (0.17647058823529413 0.47058823529411764 1.1764705882352942))
(PC Bool ((<= P Pregnancies)(>= P Pregnancies))) 
(GC Bool ((<= G Glucose)(>= G Glucose))) 
(BPC Bool ((<= BP BloodPressure)(>= BP BloodPressure)))
(STC Bool ((<= ST SkinThickness)(>= ST SkinThickness))) 
(IC Bool ((<= I Insulin)(>= I Insulin))) 
(BMIC Bool ((<= BMI BodyMassIndex)(>= BMI BodyMassIndex)))
(DPFC Bool ((<= DPF DiabetesPedigreeFunction)(>= DPF DiabetesPedigreeFunction)))
(AC Bool ((<= A Age)(>= A Age)))))